node 0 w: 6.16, h: 12.95
node 1 w: 4.9, h: 12.95
node 2 w: 8.4, h: 7.56
node 3 w: 11.62, h: 19.39
node 4 w: 12.18, h: 16.52
node 5 w: 8.82, h: 13.16
连接统计: 总计 8 对
连接关系（EMIBNode 内容）:
  (A,E): node1=A, node2=E, wireCount=512, EMIBType=interfaceB, EMIB_length=1.7067, EMIB_max_width=3.0, width=2.0, height=1.7067, bump_width=1.0000
  (A,F): node1=A, node2=F, wireCount=256, EMIBType=interfaceB, EMIB_length=0.8533, EMIB_max_width=3.0, width=2.0, height=0.8533, bump_width=1.0000
  (B,C): node1=B, node2=C, wireCount=256, EMIBType=interfaceB, EMIB_length=0.8533, EMIB_max_width=3.0, width=2.0, height=0.8533, bump_width=1.0000
  (C,E): node1=C, node2=E, wireCount=256, EMIBType=interfaceB, EMIB_length=0.8533, EMIB_max_width=3.0, width=2.0, height=0.8533, bump_width=1.0000
  (C,F): node1=C, node2=F, wireCount=512, EMIBType=interfaceB, EMIB_length=1.7067, EMIB_max_width=3.0, width=2.0, height=1.7067, bump_width=1.0000
  (D,E): node1=D, node2=E, wireCount=512, EMIBType=interfaceB, EMIB_length=1.7067, EMIB_max_width=3.0, width=2.0, height=1.7067, bump_width=1.0000
  (D,F): node1=D, node2=F, wireCount=256, EMIBType=interfaceB, EMIB_length=0.8533, EMIB_max_width=3.0, width=2.0, height=0.8533, bump_width=1.0000
  (E,F): node1=E, node2=F, wireCount=256, EMIBType=interfaceB, EMIB_length=0.8533, EMIB_max_width=3.0, width=2.0, height=0.8533, bump_width=1.0000
连续布局: W=117, H=117
问题规模: 6 个模块, 8 对连接
连接关系 [node1, node2, wireCount, EMIBType, EMIB_length, EMIB_max_width]:
  (0,4): [A, E, 512, interfaceB, 1.7067, 3.0]
  (0,5): [A, F, 256, interfaceB, 0.8533, 3.0]
  (1,2): [B, C, 256, interfaceB, 0.8533, 3.0]
  (2,4): [C, E, 256, interfaceB, 0.8533, 3.0]
  (2,5): [C, F, 512, interfaceB, 1.7067, 3.0]
  (3,4): [D, E, 512, interfaceB, 1.7067, 3.0]
  (3,5): [D, F, 256, interfaceB, 0.8533, 3.0]
  (4,5): [E, F, 256, interfaceB, 0.8533, 3.0]
Set parameter WLSAccessID
Set parameter WLSSecret
Set parameter LicenseID to value 2756663
Academic license 2756663 - for non-commercial use only - registered to hu___@sjtu.edu.cn
EMIB_w_var: {(0, 4): <gurobi.Var *Awaiting Model Update*>, (0, 5): <gurobi.Var *Awaiting Model Update*>, (1, 2): <gurobi.Var *Awaiting Model Update*>, (2, 4): <gurobi.Var *Awaiting Model Update*>, (2, 5): <gurobi.Var *Awaiting Model Update*>, (3, 4): <gurobi.Var *Awaiting Model Update*>, (3, 5): <gurobi.Var *Awaiting Model Update*>, (4, 5): <gurobi.Var *Awaiting Model Update*>}
EMIB2026-03-05 16:15:36 - INFO - Set parameter TimeLimit to value 300
2026-03-05 16:15:36 - INFO - Set parameter MIPGap to value 0
2026-03-05 16:15:36 - INFO - Set parameter MIPFocus to value 3
2026-03-05 16:15:36 - INFO - Set parameter Heuristics to value 0.5
2026-03-05 16:15:36 - INFO - Set parameter LogToConsole to value 1
2026-03-05 16:15:36 - INFO - Gurobi Optimizer version 13.0.0 build v13.0.0rc1 (linux64 - "Ubuntu 20.04.6 LTS")
2026-03-05 16:15:36 - INFO - 
2026-03-05 16:15:36 - INFO - CPU model: AMD Ryzen 9 9950X3D 16-Core Processor, instruction set [SSE2|AVX|AVX2|AVX512]
2026-03-05 16:15:36 - INFO - Thread count: 6 physical cores, 12 logical processors, using up to 12 threads
2026-03-05 16:15:36 - INFO - 
2026-03-05 16:15:36 - INFO - Non-default parameters:
2026-03-05 16:15:36 - INFO - TimeLimit  300
2026-03-05 16:15:36 - INFO - MIPGap  0
2026-03-05 16:15:36 - INFO - Heuristics  0.5
2026-03-05 16:15:36 - INFO - MIPFocus  3
2026-03-05 16:15:36 - INFO - 
2026-03-05 16:15:36 - INFO - Academic license 2756663 - for non-commercial use only - registered to hu___@sjtu.edu.cn
2026-03-05 16:15:36 - INFO - Optimize a model with 820 rows, 381 columns and 2790 nonzeros (Min)
2026-03-05 16:15:36 - INFO - Model fingerprint: 0x748134bd
2026-03-05 16:15:36 - INFO - Model has 3 linear objective coefficients
2026-03-05 16:15:36 - INFO - Variable types: 159 continuous, 222 integer (222 binary)
2026-03-05 16:15:36 - INFO - Coefficient statistics:
2026-03-05 16:15:36 - INFO -   Matrix range     [3e-01, 5e+02]
2026-03-05 16:15:36 - INFO -   Objective range  [1e-04, 1e-01]
2026-03-05 16:15:36 - INFO -   Bounds range     [9e-01, 8e+06]
2026-03-05 16:15:36 - INFO -   RHS range        [9e-01, 2e+02]
2026-03-05 16:15:36 - INFO - Presolve removed 84 rows and 72 columns
2026-03-05 16:15:36 - INFO - Presolve time: 0.01s
2026-03-05 16:15:36 - INFO - Presolved: 736 rows, 309 columns, 2628 nonzeros
2026-03-05 16:15:36 - INFO - Variable types: 103 continuous, 206 integer (206 binary)
2026-03-05 16:15:36 - INFO - Root relaxation presolve removed 28 rows and 4 columns
2026-03-05 16:15:36 - INFO - Root relaxation presolved: 708 rows, 317 columns, 2576 nonzeros
2026-03-05 16:15:36 - INFO - 
2026-03-05 16:15:36 - INFO - 
2026-03-05 16:15:36 - INFO - Root relaxation: objective 2.718799e+00, 177 iterations, 0.00 seconds (0.00 work units)
2026-03-05 16:15:36 - INFO - 
2026-03-05 16:15:36 - INFO -     Nodes    |    Current Node    |     Objective Bounds      |     Work
2026-03-05 16:15:36 - INFO -  Expl Unexpl |  Obj  Depth IntInf | Incumbent    BestBd   Gap | It/Node Time
2026-03-05 16:15:36 - INFO - 
2026-03-05 16:15:36 - INFO -      0     0    2.71880    0   82          -    2.71880      -     -    0s
2026-03-05 16:15:36 - INFO -      0     0    2.72686    0  102          -    2.72686      -     -    0s
2026-03-05 16:15:36 - INFO -      0     0    2.72686    0   92          -    2.72686      -     -    0s
2026-03-05 16:15:36 - INFO -      0     0    5.01435    0   87          -    5.01435      -     -    0s
2026-03-05 16:15:36 - INFO -      0     0    5.12266    0  107          -    5.12266      -     -    0s
2026-03-05 16:15:36 - INFO -      0     0    5.12266    0   97          -    5.12266      -     -    0s
2026-03-05 16:15:36 - INFO -      0     0    5.90144    0   99          -    5.90144      -     -    0s
2026-03-05 16:15:37 - INFO -      0     0    6.52214    0  115          -    6.52214      -     -    0s
2026-03-05 16:15:37 - INFO -      0     0    6.52214    0  115          -    6.52214      -     -    0s
2026-03-05 16:15:37 - INFO -      0     0    6.52214    0  115          -    6.52214      -     -    0s
2026-03-05 16:15:37 - INFO -      0     0    7.23291    0  115          -    7.23291      -     -    0s
2026-03-05 16:15:37 - INFO -      0     0    7.23291    0  104          -    7.23291      -     -    0s
2026-03-05 16:15:37 - INFO -      0     2    7.23291    0  104          -    7.23291      -     -    1s
2026-03-05 16:15:41 - INFO - 
2026-03-05 16:15:41 - INFO - Cutting planes:
2026-03-05 16:15:41 - INFO -   Learned: 5
2026-03-05 16:15:41 - INFO -   Gomory: 62
2026-03-05 16:15:41 - INFO -   Lift-and-project: 31
2026-03-05 16:15:41 - INFO -   Implied bound: 2
2026-03-05 16:15:41 - INFO -   MIR: 13
2026-03-05 16:15:41 - INFO -   Flow cover: 160
2026-03-05 16:15:41 - INFO -   Inf proof: 6
2026-03-05 16:15:41 - INFO -   Relax-and-lift: 1
2026-03-05 16:15:41 - INFO - 
2026-03-05 16:15:41 - INFO - Explored 5585 nodes (150730 simplex iterations) in 4.32 seconds (7.34 work units)
2026-03-05 16:15:41 - INFO - Thread count was 12 (of 12 available processors)
2026-03-05 16:15:41 - INFO - 
2026-03-05 16:15:41 - INFO - Solution count 0
2026-03-05 16:15:41 - INFO - 
2026-03-05 16:15:41 - INFO - Model is infeasible
2026-03-05 16:15:41 - INFO - Best objective -, best bound -, gap -
2026-03-05 16:15:41 - INFO - 
EMIB求解返回 0 个解（最多1个）。
e
Best objective -, best bound -, gap -
[EMIB] 单次求解无可行解: MIPGap=0.0, 状态码=3, 用时=4.32s, SolCount=0
[EMIB] 搜索解失败，无合法解
  ✓ EMIB求解：返回 0 个解
